<number of tasks>
89

<cycle time>
13

<task times>
1 1
2 2
3 3
4 4
5 5
6 6
7 7
8 8
9 9
10 10
11 1
12 2
13 3
14 4
15 5
16 6
17 7
18 8
19 9
20 10
21 1
22 2
23 3
24 4
25 5
26 6
27 7
28 8
29 9
30 10
31 1
32 2
33 3
34 4
35 5
36 6
37 7
38 8
39 9
40 10
41 1
42 2
43 3
44 4
45 5
46 6
47 7
48 8
49 9
50 10
51 1
52 2
53 3
54 4
55 5
56 6
57 7
58 8
59 9
60 10
61 1
62 2
63 3
64 4
65 5
66 6
67 7
68 8
69 9
70 10
71 1
72 2
73 3
74 4
75 5
76 6
77 7
78 8
79 9
80 10
81 1
82 2
83 3
84 4
85 5
86 6
87 7
88 8
89 9

<precedence relations>
1,2
2,3
3,4
4,5
4,6
4,7
4,8
4,9
5,10
6,11
7,12
8,18
9,18
10,14
11,12
12,13
13,14
14,15
14,16
15,17
16,54
17,18
18,19
18,20
19,22
20,21
20,28
21,54
22,23
23,24
24,25
25,26
25,27
25,29
26,37
27,33
28,29
29,31
30,54
31,32
32,33
33,34
34,35
35,36
35,37
36,38
37,38
38,39
39,40
39,41
39,42
39,43
40,44
41,53
42,53
43,45
44,52
45,46
46,47
47,48
47,49
49,50
50,51
51,52
52,53
53,68
53,69
53,70
53,71
54,55
55,56
56,57
57,58
57,59
57,60
57,61
57,62
57,63
57,64
57,65
57,66
58,67
59,67
60,67
61,67
62,67
63,67
64,67
65,67
66,67
67,73
68,72
69,72
70,72
71,73
72,78
72,80
73,74
74,75
74,76
75,77
76,81
77,78
78,79
79,81
80,81
81,82
81,84
81,85
82,83
83,86
84,86
85,86
86,87
87,88
87,89

<setup times forward>
4,6:1
4,7:1
4,8:1
5,6:1
5,7:1
5,8:1
6,5:1
6,9:1
6,10:1
6,11:1
6,30:1
7,5:1
7,9:1
7,10:1
7,11:1
7,12:1
7,30:1
8,5:1
8,9:1
8,10:1
8,11:1
8,12:1
8,13:1
8,15:1
8,17:1
8,30:1
9,6:1
9,7:1
9,8:1
9,14:1
9,16:1
9,18:1
10,6:1
10,7:1
10,8:1
10,14:1
11,7:1
11,8:1
12,8:1
13,8:1
13,14:1
14,9:1
14,15:1
14,30:1
15,8:1
15,16:1
16,9:1
16,15:1
16,17:1
16,20:1
16,21:1
16,25:1
16,26:1
16,27:1
16,28:1
16,29:1
16,30:1
16,31:1
16,35:1
16,38:1
16,39:1
16,40:1
16,43:1
16,45:1
16,54:1
16,68:1
16,69:1
16,72:1
16,80:1
17,8:1
17,16:1
17,18:1
18,20:1
18,30:1
19,20:1
19,21:1
19,28:1
19,30:1
19,54:1
19,55:1
19,58:1
19,61:1
19,62:1
19,63:1
19,65:1
19,66:1
19,67:1
20,16:1
20,19:1
20,22:1
20,23:1
20,24:1
21,16:1
21,19:1
21,22:1
21,23:1
21,24:1
21,32:1
21,33:1
21,34:1
21,36:1
21,37:1
21,41:1
21,42:1
21,44:1
21,46:1
21,47:1
21,48:1
21,49:1
21,50:1
21,51:1
21,52:1
21,53:1
21,70:1
21,71:1
22,20:1
22,21:1
22,28:1
22,30:1
22,54:1
22,55:1
22,58:1
22,61:1
22,62:1
22,63:1
22,65:1
22,66:1
22,67:1
23,20:1
23,21:1
23,28:1
23,30:1
23,54:1
23,55:1
23,58:1
23,61:1
23,62:1
23,63:1
23,65:1
23,66:1
23,67:1
24,20:1
24,21:1
24,25:1
24,28:1
24,30:1
24,54:1
24,55:1
24,58:1
24,61:1
24,62:1
24,63:1
24,65:1
24,66:1
24,67:1
25,16:1
25,56:1
25,57:1
25,59:1
25,60:1
25,64:1
26,16:1
26,32:1
26,33:1
26,34:1
26,36:1
26,37:1
26,56:1
26,57:1
26,59:1
26,60:1
26,64:1
27,16:1
27,32:1
27,33:1
27,56:1
27,57:1
27,59:1
27,60:1
27,64:1
28,16:1
28,19:1
28,22:1
28,23:1
28,24:1
28,56:1
28,57:1
28,59:1
28,60:1
28,64:1
29,16:1
29,56:1
29,57:1
29,59:1
29,60:1
29,64:1
30,6:1
30,7:1
30,8:1
30,14:1
30,16:1
30,18:1
30,19:1
30,22:1
30,23:1
30,24:1
30,32:1
30,33:1
30,34:1
30,36:1
30,37:1
30,41:1
30,42:1
30,44:1
30,46:1
30,47:1
30,48:1
30,49:1
30,50:1
30,51:1
30,52:1
30,53:1
30,70:1
30,71:1
31,16:1
31,32:1
31,56:1
31,57:1
31,59:1
31,60:1
31,64:1
32,21:1
32,26:1
32,27:1
32,30:1
32,54:1
32,55:1
32,58:1
32,61:1
32,62:1
32,63:1
32,65:1
32,66:1
32,67:1
33,21:1
33,26:1
33,30:1
33,54:1
33,55:1
33,58:1
33,61:1
33,62:1
33,63:1
33,65:1
33,66:1
33,67:1
34,21:1
34,26:1
34,30:1
34,35:1
34,54:1
34,55:1
34,58:1
34,61:1
34,62:1
34,63:1
34,65:1
34,66:1
34,67:1
35,16:1
35,36:1
35,37:1
35,56:1
35,57:1
35,59:1
35,60:1
35,64:1
36,21:1
36,26:1
36,30:1
36,38:1
36,54:1
36,55:1
36,58:1
36,61:1
36,62:1
36,63:1
36,65:1
36,66:1
36,67:1
37,21:1
37,30:1
37,38:1
37,54:1
37,55:1
37,58:1
37,61:1
37,62:1
37,63:1
37,65:1
37,66:1
37,67:1
38,16:1
38,56:1
38,57:1
38,59:1
38,60:1
38,64:1
39,16:1
39,41:1
39,42:1
39,56:1
39,57:1
39,59:1
39,60:1
39,64:1
40,16:1
40,41:1
40,42:1
40,44:1
40,46:1
40,47:1
40,48:1
40,49:1
40,50:1
40,51:1
40,56:1
40,57:1
40,59:1
40,60:1
40,64:1
41,21:1
41,30:1
41,40:1
41,43:1
41,45:1
41,54:1
41,55:1
41,58:1
41,61:1
41,62:1
41,63:1
41,65:1
41,66:1
41,67:1
42,21:1
42,30:1
42,40:1
42,43:1
42,45:1
42,54:1
42,55:1
42,58:1
42,61:1
42,62:1
42,63:1
42,65:1
42,66:1
42,67:1
43,16:1
43,41:1
43,42:1
43,44:1
43,56:1
43,57:1
43,59:1
43,60:1
43,64:1
44,21:1
44,30:1
44,43:1
44,45:1
44,54:1
44,55:1
44,58:1
44,61:1
44,62:1
44,63:1
44,65:1
44,66:1
44,67:1
45,16:1
45,41:1
45,42:1
45,44:1
45,46:1
45,56:1
45,57:1
45,59:1
45,60:1
45,64:1
46,21:1
46,30:1
46,40:1
46,54:1
46,55:1
46,58:1
46,61:1
46,62:1
46,63:1
46,65:1
46,66:1
46,67:1
47,21:1
47,30:1
47,40:1
47,54:1
47,55:1
47,58:1
47,61:1
47,62:1
47,63:1
47,65:1
47,66:1
47,67:1
48,21:1
48,30:1
48,40:1
48,54:1
48,55:1
48,58:1
48,61:1
48,62:1
48,63:1
48,65:1
48,66:1
48,67:1
48,68:1
48,69:1
48,72:1
48,74:1
48,75:1
48,76:1
48,77:1
48,78:1
48,80:1
48,81:1
48,82:1
48,83:1
48,84:1
48,86:1
48,87:1
49,21:1
49,30:1
49,40:1
49,54:1
49,55:1
49,58:1
49,61:1
49,62:1
49,63:1
49,65:1
49,66:1
49,67:1
50,21:1
50,30:1
50,40:1
50,54:1
50,55:1
50,58:1
50,61:1
50,62:1
50,63:1
50,65:1
50,66:1
50,67:1
51,21:1
51,30:1
51,40:1
51,54:1
51,55:1
51,58:1
51,61:1
51,62:1
51,63:1
51,65:1
51,66:1
51,67:1
52,21:1
52,30:1
52,54:1
52,55:1
52,58:1
52,61:1
52,62:1
52,63:1
52,65:1
52,66:1
52,67:1
53,21:1
53,30:1
53,54:1
53,55:1
53,58:1
53,61:1
53,62:1
53,63:1
53,65:1
53,66:1
53,67:1
53,68:1
53,69:1
54,19:1
54,22:1
54,23:1
54,24:1
54,32:1
54,33:1
54,34:1
54,36:1
54,37:1
54,41:1
54,42:1
54,44:1
54,46:1
54,47:1
54,48:1
54,49:1
54,50:1
54,51:1
54,52:1
54,53:1
54,70:1
54,71:1
55,19:1
55,22:1
55,23:1
55,24:1
55,32:1
55,33:1
55,34:1
55,36:1
55,37:1
55,41:1
55,42:1
55,44:1
55,46:1
55,47:1
55,48:1
55,49:1
55,50:1
55,51:1
55,52:1
55,53:1
55,56:1
55,70:1
55,71:1
56,25:1
56,26:1
56,27:1
56,28:1
56,29:1
56,31:1
56,35:1
56,38:1
56,39:1
56,40:1
56,43:1
56,45:1
56,68:1
56,69:1
56,72:1
56,80:1
57,25:1
57,26:1
57,27:1
57,28:1
57,29:1
57,31:1
57,35:1
57,38:1
57,39:1
57,40:1
57,43:1
57,45:1
57,58:1
57,61:1
57,62:1
57,63:1
57,65:1
57,66:1
57,68:1
57,69:1
57,72:1
57,80:1
58,19:1
58,22:1
58,23:1
58,24:1
58,32:1
58,33:1
58,34:1
58,36:1
58,37:1
58,41:1
58,42:1
58,44:1
58,46:1
58,47:1
58,48:1
58,49:1
58,50:1
58,51:1
58,52:1
58,53:1
58,59:1
58,60:1
58,64:1
58,70:1
58,71:1
59,25:1
59,26:1
59,27:1
59,28:1
59,29:1
59,31:1
59,35:1
59,38:1
59,39:1
59,40:1
59,43:1
59,45:1
59,58:1
59,61:1
59,62:1
59,63:1
59,65:1
59,66:1
59,67:1
59,68:1
59,69:1
59,72:1
59,80:1
60,25:1
60,26:1
60,27:1
60,28:1
60,29:1
60,31:1
60,35:1
60,38:1
60,39:1
60,40:1
60,43:1
60,45:1
60,58:1
60,61:1
60,62:1
60,63:1
60,65:1
60,66:1
60,67:1
60,68:1
60,69:1
60,72:1
60,80:1
61,19:1
61,22:1
61,23:1
61,24:1
61,32:1
61,33:1
61,34:1
61,36:1
61,37:1
61,41:1
61,42:1
61,44:1
61,46:1
61,47:1
61,48:1
61,49:1
61,50:1
61,51:1
61,52:1
61,53:1
61,59:1
61,60:1
61,64:1
61,70:1
61,71:1
62,19:1
62,22:1
62,23:1
62,24:1
62,32:1
62,33:1
62,34:1
62,36:1
62,37:1
62,41:1
62,42:1
62,44:1
62,46:1
62,47:1
62,48:1
62,49:1
62,50:1
62,51:1
62,52:1
62,53:1
62,59:1
62,60:1
62,64:1
62,70:1
62,71:1
63,19:1
63,22:1
63,23:1
63,24:1
63,32:1
63,33:1
63,34:1
63,36:1
63,37:1
63,41:1
63,42:1
63,44:1
63,46:1
63,47:1
63,48:1
63,49:1
63,50:1
63,51:1
63,52:1
63,53:1
63,59:1
63,60:1
63,64:1
63,70:1
63,71:1
64,25:1
64,26:1
64,27:1
64,28:1
64,29:1
64,31:1
64,35:1
64,38:1
64,39:1
64,40:1
64,43:1
64,45:1
64,58:1
64,61:1
64,62:1
64,63:1
64,65:1
64,66:1
64,67:1
64,68:1
64,69:1
64,72:1
64,80:1
65,19:1
65,22:1
65,23:1
65,24:1
65,32:1
65,33:1
65,34:1
65,36:1
65,37:1
65,41:1
65,42:1
65,44:1
65,46:1
65,47:1
65,48:1
65,49:1
65,50:1
65,51:1
65,52:1
65,53:1
65,59:1
65,60:1
65,64:1
65,70:1
65,71:1
66,19:1
66,22:1
66,23:1
66,24:1
66,32:1
66,33:1
66,34:1
66,36:1
66,37:1
66,41:1
66,42:1
66,44:1
66,46:1
66,47:1
66,48:1
66,49:1
66,50:1
66,51:1
66,52:1
66,53:1
66,59:1
66,60:1
66,64:1
66,70:1
66,71:1
67,19:1
67,22:1
67,23:1
67,24:1
67,32:1
67,33:1
67,34:1
67,36:1
67,37:1
67,41:1
67,42:1
67,44:1
67,46:1
67,47:1
67,48:1
67,49:1
67,50:1
67,51:1
67,52:1
67,53:1
67,70:1
67,71:1
67,73:1
68,16:1
68,48:1
68,56:1
68,57:1
68,59:1
68,60:1
68,64:1
68,70:1
68,71:1
68,73:1
69,16:1
69,48:1
69,56:1
69,57:1
69,59:1
69,60:1
69,64:1
69,70:1
69,71:1
69,73:1
70,21:1
70,30:1
70,54:1
70,55:1
70,58:1
70,61:1
70,62:1
70,63:1
70,65:1
70,66:1
70,67:1
70,68:1
70,69:1
70,72:1
70,74:1
70,75:1
70,76:1
70,77:1
71,21:1
71,30:1
71,54:1
71,55:1
71,58:1
71,61:1
71,62:1
71,63:1
71,65:1
71,66:1
71,67:1
71,68:1
71,69:1
71,72:1
71,80:1
72,16:1
72,48:1
72,56:1
72,57:1
72,59:1
72,60:1
72,64:1
72,71:1
72,73:1
73,68:1
73,69:1
73,72:1
73,74:1
73,80:1
74,48:1
74,70:1
75,48:1
75,70:1
76,48:1
76,70:1
76,79:1
77,48:1
77,70:1
78,48:1
78,79:1
79,76:1
79,80:1
79,81:1
80,16:1
80,48:1
80,56:1
80,57:1
80,59:1
80,60:1
80,64:1
80,71:1
80,73:1
80,79:1
81,48:1
81,85:1
82,48:1
82,85:1
83,48:1
83,85:1
84,48:1
84,85:1
85,82:1
85,83:1
85,84:1
85,86:1
86,48:1
87,48:1
87,88:1
87,89:1

<setup times backward>
5,6:1
5,7:1
5,8:1
9,6:1
9,7:1
9,8:1
9,14:1
9,16:1
10,6:1
10,7:1
10,8:1
11,6:1
11,7:1
11,8:1
12,6:1
12,7:1
12,8:1
13,6:1
13,7:1
13,8:1
15,6:1
15,7:1
15,8:1
15,14:1
15,16:1
17,6:1
17,7:1
17,8:1
17,14:1
17,16:1
20,6:1
20,7:1
20,8:1
20,14:1
20,16:1
20,18:1
20,19:1
20,22:1
20,23:1
20,24:1
21,6:1
21,7:1
21,8:1
21,14:1
21,16:1
21,18:1
21,19:1
21,22:1
21,23:1
21,24:1
21,32:1
21,33:1
21,34:1
21,36:1
21,37:1
21,41:1
21,42:1
21,44:1
21,46:1
21,47:1
21,48:1
21,49:1
21,50:1
21,51:1
21,52:1
21,53:1
21,70:1
21,71:1
25,6:1
25,7:1
25,8:1
25,14:1
25,16:1
25,18:1
25,19:1
25,22:1
25,23:1
25,24:1
25,56:1
25,57:1
25,59:1
25,60:1
25,64:1
26,6:1
26,7:1
26,8:1
26,14:1
26,16:1
26,18:1
26,19:1
26,22:1
26,23:1
26,24:1
26,32:1
26,33:1
26,34:1
26,36:1
26,56:1
26,57:1
26,59:1
26,60:1
26,64:1
27,6:1
27,7:1
27,8:1
27,14:1
27,16:1
27,18:1
27,19:1
27,22:1
27,23:1
27,24:1
27,32:1
27,56:1
27,57:1
27,59:1
27,60:1
27,64:1
28,6:1
28,7:1
28,8:1
28,14:1
28,16:1
28,18:1
28,19:1
28,22:1
28,23:1
28,24:1
28,56:1
28,57:1
28,59:1
28,60:1
28,64:1
29,6:1
29,7:1
29,8:1
29,14:1
29,16:1
29,18:1
29,19:1
29,22:1
29,23:1
29,24:1
29,56:1
29,57:1
29,59:1
29,60:1
29,64:1
30,6:1
30,7:1
30,8:1
30,14:1
30,16:1
30,18:1
30,19:1
30,22:1
30,23:1
30,24:1
30,32:1
30,33:1
30,34:1
30,36:1
30,37:1
30,41:1
30,42:1
30,44:1
30,46:1
30,47:1
30,48:1
30,49:1
30,50:1
30,51:1
30,52:1
30,53:1
30,70:1
30,71:1
31,6:1
31,7:1
31,8:1
31,14:1
31,16:1
31,18:1
31,19:1
31,22:1
31,23:1
31,24:1
31,56:1
31,57:1
31,59:1
31,60:1
31,64:1
35,6:1
35,7:1
35,8:1
35,14:1
35,16:1
35,18:1
35,19:1
35,22:1
35,23:1
35,24:1
35,32:1
35,33:1
35,34:1
35,56:1
35,57:1
35,59:1
35,60:1
35,64:1
38,6:1
38,7:1
38,8:1
38,14:1
38,16:1
38,18:1
38,19:1
38,22:1
38,23:1
38,24:1
38,32:1
38,33:1
38,34:1
38,36:1
38,37:1
38,56:1
38,57:1
38,59:1
38,60:1
38,64:1
39,6:1
39,7:1
39,8:1
39,14:1
39,16:1
39,18:1
39,19:1
39,22:1
39,23:1
39,24:1
39,32:1
39,33:1
39,34:1
39,36:1
39,37:1
39,56:1
39,57:1
39,59:1
39,60:1
39,64:1
40,6:1
40,7:1
40,8:1
40,14:1
40,16:1
40,18:1
40,19:1
40,22:1
40,23:1
40,24:1
40,32:1
40,33:1
40,34:1
40,36:1
40,37:1
40,41:1
40,42:1
40,46:1
40,47:1
40,48:1
40,49:1
40,50:1
40,51:1
40,56:1
40,57:1
40,59:1
40,60:1
40,64:1
43,6:1
43,7:1
43,8:1
43,14:1
43,16:1
43,18:1
43,19:1
43,22:1
43,23:1
43,24:1
43,32:1
43,33:1
43,34:1
43,36:1
43,37:1
43,41:1
43,42:1
43,44:1
43,56:1
43,57:1
43,59:1
43,60:1
43,64:1
45,6:1
45,7:1
45,8:1
45,14:1
45,16:1
45,18:1
45,19:1
45,22:1
45,23:1
45,24:1
45,32:1
45,33:1
45,34:1
45,36:1
45,37:1
45,41:1
45,42:1
45,44:1
45,56:1
45,57:1
45,59:1
45,60:1
45,64:1
54,6:1
54,7:1
54,8:1
54,14:1
54,16:1
54,18:1
54,19:1
54,22:1
54,23:1
54,24:1
54,32:1
54,33:1
54,34:1
54,36:1
54,37:1
54,41:1
54,42:1
54,44:1
54,46:1
54,47:1
54,48:1
54,49:1
54,50:1
54,51:1
54,52:1
54,53:1
54,70:1
54,71:1
55,6:1
55,7:1
55,8:1
55,14:1
55,16:1
55,18:1
55,19:1
55,22:1
55,23:1
55,24:1
55,32:1
55,33:1
55,34:1
55,36:1
55,37:1
55,41:1
55,42:1
55,44:1
55,46:1
55,47:1
55,48:1
55,49:1
55,50:1
55,51:1
55,52:1
55,53:1
55,70:1
55,71:1
58,6:1
58,7:1
58,8:1
58,14:1
58,16:1
58,18:1
58,19:1
58,22:1
58,23:1
58,24:1
58,32:1
58,33:1
58,34:1
58,36:1
58,37:1
58,41:1
58,42:1
58,44:1
58,46:1
58,47:1
58,48:1
58,49:1
58,50:1
58,51:1
58,52:1
58,53:1
58,56:1
58,57:1
58,59:1
58,60:1
58,64:1
58,70:1
58,71:1
61,6:1
61,7:1
61,8:1
61,14:1
61,16:1
61,18:1
61,19:1
61,22:1
61,23:1
61,24:1
61,32:1
61,33:1
61,34:1
61,36:1
61,37:1
61,41:1
61,42:1
61,44:1
61,46:1
61,47:1
61,48:1
61,49:1
61,50:1
61,51:1
61,52:1
61,53:1
61,56:1
61,57:1
61,59:1
61,60:1
61,64:1
61,70:1
61,71:1
62,6:1
62,7:1
62,8:1
62,14:1
62,16:1
62,18:1
62,19:1
62,22:1
62,23:1
62,24:1
62,32:1
62,33:1
62,34:1
62,36:1
62,37:1
62,41:1
62,42:1
62,44:1
62,46:1
62,47:1
62,48:1
62,49:1
62,50:1
62,51:1
62,52:1
62,53:1
62,56:1
62,57:1
62,59:1
62,60:1
62,64:1
62,70:1
62,71:1
63,6:1
63,7:1
63,8:1
63,14:1
63,16:1
63,18:1
63,19:1
63,22:1
63,23:1
63,24:1
63,32:1
63,33:1
63,34:1
63,36:1
63,37:1
63,41:1
63,42:1
63,44:1
63,46:1
63,47:1
63,48:1
63,49:1
63,50:1
63,51:1
63,52:1
63,53:1
63,56:1
63,57:1
63,59:1
63,60:1
63,64:1
63,70:1
63,71:1
65,6:1
65,7:1
65,8:1
65,14:1
65,16:1
65,18:1
65,19:1
65,22:1
65,23:1
65,24:1
65,32:1
65,33:1
65,34:1
65,36:1
65,37:1
65,41:1
65,42:1
65,44:1
65,46:1
65,47:1
65,48:1
65,49:1
65,50:1
65,51:1
65,52:1
65,53:1
65,56:1
65,57:1
65,59:1
65,60:1
65,64:1
65,70:1
65,71:1
66,6:1
66,7:1
66,8:1
66,14:1
66,16:1
66,18:1
66,19:1
66,22:1
66,23:1
66,24:1
66,32:1
66,33:1
66,34:1
66,36:1
66,37:1
66,41:1
66,42:1
66,44:1
66,46:1
66,47:1
66,48:1
66,49:1
66,50:1
66,51:1
66,52:1
66,53:1
66,56:1
66,57:1
66,59:1
66,60:1
66,64:1
66,70:1
66,71:1
67,6:1
67,7:1
67,8:1
67,14:1
67,16:1
67,18:1
67,19:1
67,22:1
67,23:1
67,24:1
67,32:1
67,33:1
67,34:1
67,36:1
67,37:1
67,41:1
67,42:1
67,44:1
67,46:1
67,47:1
67,48:1
67,49:1
67,50:1
67,51:1
67,52:1
67,53:1
67,56:1
67,57:1
67,59:1
67,60:1
67,64:1
67,70:1
67,71:1
68,6:1
68,7:1
68,8:1
68,14:1
68,16:1
68,18:1
68,19:1
68,22:1
68,23:1
68,24:1
68,32:1
68,33:1
68,34:1
68,36:1
68,37:1
68,41:1
68,42:1
68,44:1
68,46:1
68,47:1
68,48:1
68,49:1
68,50:1
68,51:1
68,52:1
68,53:1
68,56:1
68,57:1
68,59:1
68,60:1
68,64:1
68,70:1
68,71:1
68,73:1
69,6:1
69,7:1
69,8:1
69,14:1
69,16:1
69,18:1
69,19:1
69,22:1
69,23:1
69,24:1
69,32:1
69,33:1
69,34:1
69,36:1
69,37:1
69,41:1
69,42:1
69,44:1
69,46:1
69,47:1
69,48:1
69,49:1
69,50:1
69,51:1
69,52:1
69,53:1
69,56:1
69,57:1
69,59:1
69,60:1
69,64:1
69,70:1
69,71:1
69,73:1
72,6:1
72,7:1
72,8:1
72,14:1
72,16:1
72,18:1
72,19:1
72,22:1
72,23:1
72,24:1
72,32:1
72,33:1
72,34:1
72,36:1
72,37:1
72,41:1
72,42:1
72,44:1
72,46:1
72,47:1
72,48:1
72,49:1
72,50:1
72,51:1
72,52:1
72,53:1
72,56:1
72,57:1
72,59:1
72,60:1
72,64:1
72,70:1
72,71:1
72,73:1
74,6:1
74,7:1
74,8:1
74,14:1
74,16:1
74,18:1
74,19:1
74,22:1
74,23:1
74,24:1
74,32:1
74,33:1
74,34:1
74,36:1
74,37:1
74,41:1
74,42:1
74,44:1
74,46:1
74,47:1
74,48:1
74,49:1
74,50:1
74,51:1
74,52:1
74,53:1
74,56:1
74,57:1
74,59:1
74,60:1
74,64:1
74,70:1
74,71:1
74,73:1
75,6:1
75,7:1
75,8:1
75,14:1
75,16:1
75,18:1
75,19:1
75,22:1
75,23:1
75,24:1
75,32:1
75,33:1
75,34:1
75,36:1
75,37:1
75,41:1
75,42:1
75,44:1
75,46:1
75,47:1
75,48:1
75,49:1
75,50:1
75,51:1
75,52:1
75,53:1
75,56:1
75,57:1
75,59:1
75,60:1
75,64:1
75,70:1
75,71:1
75,73:1
76,6:1
76,7:1
76,8:1
76,14:1
76,16:1
76,18:1
76,19:1
76,22:1
76,23:1
76,24:1
76,32:1
76,33:1
76,34:1
76,36:1
76,37:1
76,41:1
76,42:1
76,44:1
76,46:1
76,47:1
76,48:1
76,49:1
76,50:1
76,51:1
76,52:1
76,53:1
76,56:1
76,57:1
76,59:1
76,60:1
76,64:1
76,70:1
76,71:1
76,73:1
76,79:1
77,6:1
77,7:1
77,8:1
77,14:1
77,16:1
77,18:1
77,19:1
77,22:1
77,23:1
77,24:1
77,32:1
77,33:1
77,34:1
77,36:1
77,37:1
77,41:1
77,42:1
77,44:1
77,46:1
77,47:1
77,48:1
77,49:1
77,50:1
77,51:1
77,52:1
77,53:1
77,56:1
77,57:1
77,59:1
77,60:1
77,64:1
77,70:1
77,71:1
77,73:1
78,6:1
78,7:1
78,8:1
78,14:1
78,16:1
78,18:1
78,19:1
78,22:1
78,23:1
78,24:1
78,32:1
78,33:1
78,34:1
78,36:1
78,37:1
78,41:1
78,42:1
78,44:1
78,46:1
78,47:1
78,48:1
78,49:1
78,50:1
78,51:1
78,52:1
78,53:1
78,56:1
78,57:1
78,59:1
78,60:1
78,64:1
78,70:1
78,71:1
78,73:1
80,6:1
80,7:1
80,8:1
80,14:1
80,16:1
80,18:1
80,19:1
80,22:1
80,23:1
80,24:1
80,32:1
80,33:1
80,34:1
80,36:1
80,37:1
80,41:1
80,42:1
80,44:1
80,46:1
80,47:1
80,48:1
80,49:1
80,50:1
80,51:1
80,52:1
80,53:1
80,56:1
80,57:1
80,59:1
80,60:1
80,64:1
80,70:1
80,71:1
80,73:1
80,79:1
81,6:1
81,7:1
81,8:1
81,14:1
81,16:1
81,18:1
81,19:1
81,22:1
81,23:1
81,24:1
81,32:1
81,33:1
81,34:1
81,36:1
81,37:1
81,41:1
81,42:1
81,44:1
81,46:1
81,47:1
81,48:1
81,49:1
81,50:1
81,51:1
81,52:1
81,53:1
81,56:1
81,57:1
81,59:1
81,60:1
81,64:1
81,70:1
81,71:1
81,73:1
81,79:1
82,6:1
82,7:1
82,8:1
82,14:1
82,16:1
82,18:1
82,19:1
82,22:1
82,23:1
82,24:1
82,32:1
82,33:1
82,34:1
82,36:1
82,37:1
82,41:1
82,42:1
82,44:1
82,46:1
82,47:1
82,48:1
82,49:1
82,50:1
82,51:1
82,52:1
82,53:1
82,56:1
82,57:1
82,59:1
82,60:1
82,64:1
82,70:1
82,71:1
82,73:1
82,79:1
82,85:1
83,6:1
83,7:1
83,8:1
83,14:1
83,16:1
83,18:1
83,19:1
83,22:1
83,23:1
83,24:1
83,32:1
83,33:1
83,34:1
83,36:1
83,37:1
83,41:1
83,42:1
83,44:1
83,46:1
83,47:1
83,48:1
83,49:1
83,50:1
83,51:1
83,52:1
83,53:1
83,56:1
83,57:1
83,59:1
83,60:1
83,64:1
83,70:1
83,71:1
83,73:1
83,79:1
83,85:1
84,6:1
84,7:1
84,8:1
84,14:1
84,16:1
84,18:1
84,19:1
84,22:1
84,23:1
84,24:1
84,32:1
84,33:1
84,34:1
84,36:1
84,37:1
84,41:1
84,42:1
84,44:1
84,46:1
84,47:1
84,48:1
84,49:1
84,50:1
84,51:1
84,52:1
84,53:1
84,56:1
84,57:1
84,59:1
84,60:1
84,64:1
84,70:1
84,71:1
84,73:1
84,79:1
84,85:1
86,6:1
86,7:1
86,8:1
86,14:1
86,16:1
86,18:1
86,19:1
86,22:1
86,23:1
86,24:1
86,32:1
86,33:1
86,34:1
86,36:1
86,37:1
86,41:1
86,42:1
86,44:1
86,46:1
86,47:1
86,48:1
86,49:1
86,50:1
86,51:1
86,52:1
86,53:1
86,56:1
86,57:1
86,59:1
86,60:1
86,64:1
86,70:1
86,71:1
86,73:1
86,79:1
86,85:1
87,6:1
87,7:1
87,8:1
87,14:1
87,16:1
87,18:1
87,19:1
87,22:1
87,23:1
87,24:1
87,32:1
87,33:1
87,34:1
87,36:1
87,37:1
87,41:1
87,42:1
87,44:1
87,46:1
87,47:1
87,48:1
87,49:1
87,50:1
87,51:1
87,52:1
87,53:1
87,56:1
87,57:1
87,59:1
87,60:1
87,64:1
87,70:1
87,71:1
87,73:1
87,79:1
87,85:1

<end>

<optimal SALBP-1 value>
40


<rand seed>
467321153

